200
100 100
1 70 19
2 70 258
3 70 759
4 69 278
5 69 267
6 69 679
7 69 496
8 68 22
9 68 629
10 68 482
11 68 765
12 68 39
13 68 497
14 68 829
15 67 802
16 67 838
17 66 646
18 66 551
19 65 148
20 64 439
21 64 652
22 64 249
23 64 712
24 64 889
25 63 665
26 63 862
27 63 619
28 63 278
29 63 738
30 62 739
31 62 727
32 62 150
33 62 548
34 62 967
35 62 485
36 61 223
37 61 563
38 61 654
39 61 675
40 61 536
41 61 444
42 60 467
43 59 96
44 59 564
45 59 607
46 58 977
47 58 461
48 58 125
49 58 649
50 58 627
51 58 318
52 57 378
53 57 32
54 57 366
55 57 200
56 56 678
57 56 960
58 56 465
59 56 708
60 56 785
61 56 188
62 56 400
63 55 489
64 55 816
65 55 63
66 55 899
67 55 540
68 54 450
69 54 30
70 54 303
71 54 861
72 54 245
73 54 316
74 54 587
75 53 194
76 53 205
77 53 424
78 53 300
79 52 698
80 52 981
81 52 964
82 52 563
83 51 188
84 51 831
85 51 44
86 51 854
87 50 435
88 50 948
89 50 281
90 49 422
91 49 291
92 49 293
93 49 867
94 48 708
95 48 478
96 48 280
97 48 802
98 48 791
99 48 135
100 47 235
101 47 708
102 47 319
103 47 61
104 46 523
105 45 935
106 45 982
107 45 446
108 45 25
109 44 461
110 43 422
111 43 915
112 43 943
113 42 987
114 42 487
115 42 60
116 41 429
117 41 628
118 41 517
119 41 97
120 41 364
121 40 863
122 40 818
123 40 199
124 40 646
125 40 811
126 40 626
127 40 595
128 40 842
129 39 95
130 39 203
131 39 911
132 38 635
133 38 467
134 38 14
135 38 577
136 38 742
137 38 933
138 38 398
139 38 157
140 38 196
141 37 762
142 37 80
143 37 108
144 36 453
145 36 860
146 36 505
147 36 30
148 36 636
149 36 917
150 36 455
151 36 994
152 35 111
153 35 106
154 35 577
155 35 410
156 34 86
157 34 635
158 34 11
159 34 930
160 34 174
161 34 752
162 34 466
163 34 523
164 33 750
165 33 354
166 32 343
167 31 171
168 31 191
169 31 712
170 30 931
171 30 496
172 29 810
173 29 981
174 29 272
175 29 1
176 28 184
177 28 919
178 28 168
179 27 272
180 27 885
181 27 417
182 27 370
183 26 754
184 26 638
185 26 470
186 26 999
187 26 155
188 25 398
189 25 439
190 24 416
191 23 770
192 23 34
193 22 798
194 21 530
195 21 220
196 20 747
197 20 206
198 20 871
199 20 903
200 20 371
